p edge 25 32
e 1 7
e 1 12
e 2 7
e 2 18
e 2 20
e 2 24
e 3 5
e 3 10
e 3 14
e 3 16
e 3 17
e 3 23
e 4 6
e 4 10
e 5 8
e 5 11
e 5 12
e 6 23
e 7 16
e 7 22
e 9 10
e 9 16
e 9 18
e 11 12
e 11 22
e 11 24
e 12 13
e 12 24
e 13 21
e 14 17
e 17 23
e 24 25
